p cnf 586 1988
c p weight -233 1 0
c p weight 233 -1 0
c p weight 237 6.12323399573676603586882014729198302312846062338790031898128063403419218957424163818359375E-17 0
c p weight -237 1 0
c p weight 238 1 0
c p weight -238 1 0
c p weight -235 1 0
c p weight 235 -1 0
c p weight -239 1 0
c p weight 239 -1 0
c p weight -241 1 0
c p weight 241 -1 0
c p weight -244 1 0
c p weight 244 -1 0
c p weight -247 1 0
c p weight 247 -1 0
c p weight -250 1 0
c p weight 250 -1 0
c p weight -253 1 0
c p weight 253 -1 0
c p weight -256 1 0
c p weight 256 -1 0
c p weight -259 1 0
c p weight 259 -1 0
c p weight -262 1 0
c p weight 262 -1 0
c p weight -265 1 0
c p weight 265 -1 0
c p weight -268 1 0
c p weight 268 -1 0
c p weight -271 1 0
c p weight 271 -1 0
c p weight -274 1 0
c p weight 274 -1 0
c p weight -277 1 0
c p weight 277 -1 0
c p weight -280 1 0
c p weight 280 -1 0
c p weight -283 1 0
c p weight 283 -1 0
c p weight -286 1 0
c p weight 286 -1 0
c p weight -289 1 0
c p weight 289 -1 0
c p weight -292 1 0
c p weight 292 -1 0
c p weight -295 1 0
c p weight 295 -1 0
c p weight -298 1 0
c p weight 298 -1 0
c p weight -301 1 0
c p weight 301 -1 0
c p weight -304 1 0
c p weight 304 -1 0
c p weight -307 1 0
c p weight 307 -1 0
c p weight -310 1 0
c p weight 310 -1 0
c p weight -313 1 0
c p weight 313 -1 0
c p weight -316 1 0
c p weight 316 -1 0
c p weight -319 1 0
c p weight 319 -1 0
c p weight -322 1 0
c p weight 322 -1 0
c p weight -325 1 0
c p weight 325 -1 0
c p weight -328 1 0
c p weight 328 -1 0
c p weight -331 1 0
c p weight 331 -1 0
c p weight -334 1 0
c p weight 334 -1 0
c p weight -337 1 0
c p weight 337 -1 0
c p weight -340 1 0
c p weight 340 -1 0
c p weight -343 1 0
c p weight 343 -1 0
c p weight -346 1 0
c p weight 346 -1 0
c p weight -349 1 0
c p weight 349 -1 0
c p weight -352 1 0
c p weight 352 -1 0
c p weight -355 1 0
c p weight 355 -1 0
c p weight -358 1 0
c p weight 358 -1 0
c p weight -361 1 0
c p weight 361 -1 0
c p weight -364 1 0
c p weight 364 -1 0
c p weight -367 1 0
c p weight 367 -1 0
c p weight -370 1 0
c p weight 370 -1 0
c p weight -373 1 0
c p weight 373 -1 0
c p weight -376 1 0
c p weight 376 -1 0
c p weight -379 1 0
c p weight 379 -1 0
c p weight -382 1 0
c p weight 382 -1 0
c p weight -385 1 0
c p weight 385 -1 0
c p weight -388 1 0
c p weight 388 -1 0
c p weight -391 1 0
c p weight 391 -1 0
c p weight -394 1 0
c p weight 394 -1 0
c p weight -397 1 0
c p weight 397 -1 0
c p weight -400 1 0
c p weight 400 -1 0
c p weight -403 1 0
c p weight 403 -1 0
c p weight -406 1 0
c p weight 406 -1 0
c p weight -409 1 0
c p weight 409 -1 0
c p weight -412 1 0
c p weight 412 -1 0
c p weight -415 1 0
c p weight 415 -1 0
c p weight -418 1 0
c p weight 418 -1 0
c p weight -421 1 0
c p weight 421 -1 0
c p weight -424 1 0
c p weight 424 -1 0
c p weight -427 1 0
c p weight 427 -1 0
c p weight -430 1 0
c p weight 430 -1 0
c p weight -433 1 0
c p weight 433 -1 0
c p weight -436 1 0
c p weight 436 -1 0
c p weight -439 1 0
c p weight 439 -1 0
c p weight -442 1 0
c p weight 442 -1 0
c p weight -445 1 0
c p weight 445 -1 0
c p weight -448 1 0
c p weight 448 -1 0
c p weight -451 1 0
c p weight 451 -1 0
c p weight -454 1 0
c p weight 454 -1 0
c p weight -457 1 0
c p weight 457 -1 0
c p weight -460 1 0
c p weight 460 -1 0
c p weight -463 1 0
c p weight 463 -1 0
c p weight -466 1 0
c p weight 466 -1 0
c p weight -469 1 0
c p weight 469 -1 0
c p weight -472 1 0
c p weight 472 -1 0
c p weight -475 1 0
c p weight 475 -1 0
c p weight -478 1 0
c p weight 478 -1 0
c p weight -481 1 0
c p weight 481 -1 0
c p weight -484 1 0
c p weight 484 -1 0
c p weight -487 1 0
c p weight 487 -1 0
c p weight -490 1 0
c p weight 490 -1 0
c p weight -493 1 0
c p weight 493 -1 0
c p weight -496 1 0
c p weight 496 -1 0
c p weight -499 1 0
c p weight 499 -1 0
c p weight -502 1 0
c p weight 502 -1 0
c p weight -505 1 0
c p weight 505 -1 0
c p weight -508 1 0
c p weight 508 -1 0
c p weight -511 1 0
c p weight 511 -1 0
c p weight -514 1 0
c p weight 514 -1 0
c p weight -517 1 0
c p weight 517 -1 0
c p weight -520 1 0
c p weight 520 -1 0
c p weight -523 1 0
c p weight 523 -1 0
c p weight -526 1 0
c p weight 526 -1 0
c p weight -529 1 0
c p weight 529 -1 0
c p weight -532 1 0
c p weight 532 -1 0
c p weight -535 1 0
c p weight 535 -1 0
c p weight -538 1 0
c p weight 538 -1 0
c p weight -541 1 0
c p weight 541 -1 0
c p weight -544 1 0
c p weight 544 -1 0
c p weight -547 1 0
c p weight 547 -1 0
c p weight -550 1 0
c p weight 550 -1 0
c p weight -553 1 0
c p weight 553 -1 0
c p weight -556 1 0
c p weight 556 -1 0
c p weight -559 1 0
c p weight 559 -1 0
c p weight -562 1 0
c p weight 562 -1 0
c p weight -565 1 0
c p weight 565 -1 0
c p weight -568 1 0
c p weight 568 -1 0
c p weight -571 1 0
c p weight 571 -1 0
c p weight -574 1 0
c p weight 574 -1 0
c p weight -577 1 0
c p weight 577 -1 0
c p weight -580 1 0
c p weight 580 -1 0
c p weight -583 1 0
c p weight 583 -1 0
c p weight 586 0.5 0
c p weight -586 1 0
586 0
-231 0
-229 0
-227 0
-225 0
-223 0
-221 0
-219 0
-217 0
-215 0
-213 0
-211 0
-209 0
-207 0
-205 0
-203 0
-201 0
-199 0
-197 0
-195 0
-193 0
-191 0
-189 0
-187 0
-185 0
-183 0
-181 0
-179 0
-177 0
-175 0
-173 0
-171 0
-169 0
-167 0
-165 0
-163 0
-161 0
-159 0
-157 0
-155 0
-153 0
-151 0
-149 0
-147 0
-145 0
-143 0
-141 0
-139 0
-137 0
-135 0
-133 0
-131 0
-129 0
-127 0
-125 0
-123 0
-121 0
-119 0
-117 0
-115 0
-113 0
-111 0
-109 0
-107 0
-105 0
-103 0
-101 0
-99 0
-97 0
-95 0
-93 0
-91 0
-89 0
-87 0
-85 0
-83 0
-81 0
-79 0
-77 0
-75 0
-73 0
-71 0
-69 0
-67 0
-65 0
-63 0
-61 0
-59 0
-57 0
-55 0
-53 0
-51 0
-49 0
-47 0
-45 0
-43 0
-41 0
-39 0
-37 0
-35 0
-33 0
-31 0
-29 0
-27 0
-25 0
-23 0
-21 0
-19 0
-17 0
-15 0
-13 0
-11 0
-9 0
-7 0
-5 0
-3 0
-1 0
-233 231 0
-233 232 0
233 -231 -232 0
234 231 -232 0
234 -231 232 0
-234 231 232 0
-234 -231 -232 0
-235 236 0
-235 234 0
-235 -231 0
235 -236 231 -234 0
236 -231 234 0
-236 231 234 0
-237 234 0
236 -237 -231 0
-236 -237 231 0
236 237 231 -234 0
-236 237 -231 -234 0
-238 234 0
236 -238 231 0
-236 -238 -231 0
236 238 -231 -234 0
-236 238 231 -234 0
-239 236 0
-239 234 0
239 -236 -234 0
240 236 -234 0
240 -236 234 0
-240 236 234 0
-240 -236 -234 0
-241 236 0
-241 230 0
-241 229 -240 0
-241 -229 240 0
241 -236 229 240 -230 0
241 -236 -229 -240 -230 0
243 236 -229 0
243 -236 229 0
-243 236 229 0
-243 -236 -229 0
242 240 -230 0
242 -240 230 0
-242 240 230 0
-242 -240 -230 0
-244 243 0
-244 228 0
-244 227 -230 0
-244 -227 230 0
244 -243 227 230 -228 0
244 -243 -227 -230 -228 0
246 243 -227 0
246 -243 227 0
-246 243 227 0
-246 -243 -227 0
245 230 -228 0
245 -230 228 0
-245 230 228 0
-245 -230 -228 0
-247 246 0
-247 226 0
-247 225 -228 0
-247 -225 228 0
247 -246 225 228 -226 0
247 -246 -225 -228 -226 0
249 246 -225 0
249 -246 225 0
-249 246 225 0
-249 -246 -225 0
248 228 -226 0
248 -228 226 0
-248 228 226 0
-248 -228 -226 0
-250 249 0
-250 224 0
-250 223 -226 0
-250 -223 226 0
250 -249 223 226 -224 0
250 -249 -223 -226 -224 0
252 249 -223 0
252 -249 223 0
-252 249 223 0
-252 -249 -223 0
251 226 -224 0
251 -226 224 0
-251 226 224 0
-251 -226 -224 0
-253 252 0
-253 222 0
-253 221 -224 0
-253 -221 224 0
253 -252 221 224 -222 0
253 -252 -221 -224 -222 0
255 252 -221 0
255 -252 221 0
-255 252 221 0
-255 -252 -221 0
254 224 -222 0
254 -224 222 0
-254 224 222 0
-254 -224 -222 0
-256 255 0
-256 220 0
-256 219 -222 0
-256 -219 222 0
256 -255 219 222 -220 0
256 -255 -219 -222 -220 0
258 255 -219 0
258 -255 219 0
-258 255 219 0
-258 -255 -219 0
257 222 -220 0
257 -222 220 0
-257 222 220 0
-257 -222 -220 0
-259 258 0
-259 218 0
-259 217 -220 0
-259 -217 220 0
259 -258 217 220 -218 0
259 -258 -217 -220 -218 0
261 258 -217 0
261 -258 217 0
-261 258 217 0
-261 -258 -217 0
260 220 -218 0
260 -220 218 0
-260 220 218 0
-260 -220 -218 0
-262 261 0
-262 216 0
-262 215 -218 0
-262 -215 218 0
262 -261 215 218 -216 0
262 -261 -215 -218 -216 0
264 261 -215 0
264 -261 215 0
-264 261 215 0
-264 -261 -215 0
263 218 -216 0
263 -218 216 0
-263 218 216 0
-263 -218 -216 0
-265 264 0
-265 214 0
-265 213 -216 0
-265 -213 216 0
265 -264 213 216 -214 0
265 -264 -213 -216 -214 0
267 264 -213 0
267 -264 213 0
-267 264 213 0
-267 -264 -213 0
266 216 -214 0
266 -216 214 0
-266 216 214 0
-266 -216 -214 0
-268 267 0
-268 212 0
-268 211 -214 0
-268 -211 214 0
268 -267 211 214 -212 0
268 -267 -211 -214 -212 0
270 267 -211 0
270 -267 211 0
-270 267 211 0
-270 -267 -211 0
269 214 -212 0
269 -214 212 0
-269 214 212 0
-269 -214 -212 0
-271 270 0
-271 210 0
-271 209 -212 0
-271 -209 212 0
271 -270 209 212 -210 0
271 -270 -209 -212 -210 0
273 270 -209 0
273 -270 209 0
-273 270 209 0
-273 -270 -209 0
272 212 -210 0
272 -212 210 0
-272 212 210 0
-272 -212 -210 0
-274 273 0
-274 208 0
-274 207 -210 0
-274 -207 210 0
274 -273 207 210 -208 0
274 -273 -207 -210 -208 0
276 273 -207 0
276 -273 207 0
-276 273 207 0
-276 -273 -207 0
275 210 -208 0
275 -210 208 0
-275 210 208 0
-275 -210 -208 0
-277 276 0
-277 206 0
-277 205 -208 0
-277 -205 208 0
277 -276 205 208 -206 0
277 -276 -205 -208 -206 0
279 276 -205 0
279 -276 205 0
-279 276 205 0
-279 -276 -205 0
278 208 -206 0
278 -208 206 0
-278 208 206 0
-278 -208 -206 0
-280 279 0
-280 204 0
-280 203 -206 0
-280 -203 206 0
280 -279 203 206 -204 0
280 -279 -203 -206 -204 0
282 279 -203 0
282 -279 203 0
-282 279 203 0
-282 -279 -203 0
281 206 -204 0
281 -206 204 0
-281 206 204 0
-281 -206 -204 0
-283 282 0
-283 202 0
-283 201 -204 0
-283 -201 204 0
283 -282 201 204 -202 0
283 -282 -201 -204 -202 0
285 282 -201 0
285 -282 201 0
-285 282 201 0
-285 -282 -201 0
284 204 -202 0
284 -204 202 0
-284 204 202 0
-284 -204 -202 0
-286 285 0
-286 200 0
-286 199 -202 0
-286 -199 202 0
286 -285 199 202 -200 0
286 -285 -199 -202 -200 0
288 285 -199 0
288 -285 199 0
-288 285 199 0
-288 -285 -199 0
287 202 -200 0
287 -202 200 0
-287 202 200 0
-287 -202 -200 0
-289 288 0
-289 198 0
-289 197 -200 0
-289 -197 200 0
289 -288 197 200 -198 0
289 -288 -197 -200 -198 0
291 288 -197 0
291 -288 197 0
-291 288 197 0
-291 -288 -197 0
290 200 -198 0
290 -200 198 0
-290 200 198 0
-290 -200 -198 0
-292 291 0
-292 196 0
-292 195 -198 0
-292 -195 198 0
292 -291 195 198 -196 0
292 -291 -195 -198 -196 0
294 291 -195 0
294 -291 195 0
-294 291 195 0
-294 -291 -195 0
293 198 -196 0
293 -198 196 0
-293 198 196 0
-293 -198 -196 0
-295 294 0
-295 194 0
-295 193 -196 0
-295 -193 196 0
295 -294 193 196 -194 0
295 -294 -193 -196 -194 0
297 294 -193 0
297 -294 193 0
-297 294 193 0
-297 -294 -193 0
296 196 -194 0
296 -196 194 0
-296 196 194 0
-296 -196 -194 0
-298 297 0
-298 192 0
-298 191 -194 0
-298 -191 194 0
298 -297 191 194 -192 0
298 -297 -191 -194 -192 0
300 297 -191 0
300 -297 191 0
-300 297 191 0
-300 -297 -191 0
299 194 -192 0
299 -194 192 0
-299 194 192 0
-299 -194 -192 0
-301 300 0
-301 190 0
-301 189 -192 0
-301 -189 192 0
301 -300 189 192 -190 0
301 -300 -189 -192 -190 0
303 300 -189 0
303 -300 189 0
-303 300 189 0
-303 -300 -189 0
302 192 -190 0
302 -192 190 0
-302 192 190 0
-302 -192 -190 0
-304 303 0
-304 188 0
-304 187 -190 0
-304 -187 190 0
304 -303 187 190 -188 0
304 -303 -187 -190 -188 0
306 303 -187 0
306 -303 187 0
-306 303 187 0
-306 -303 -187 0
305 190 -188 0
305 -190 188 0
-305 190 188 0
-305 -190 -188 0
-307 306 0
-307 186 0
-307 185 -188 0
-307 -185 188 0
307 -306 185 188 -186 0
307 -306 -185 -188 -186 0
309 306 -185 0
309 -306 185 0
-309 306 185 0
-309 -306 -185 0
308 188 -186 0
308 -188 186 0
-308 188 186 0
-308 -188 -186 0
-310 309 0
-310 184 0
-310 183 -186 0
-310 -183 186 0
310 -309 183 186 -184 0
310 -309 -183 -186 -184 0
312 309 -183 0
312 -309 183 0
-312 309 183 0
-312 -309 -183 0
311 186 -184 0
311 -186 184 0
-311 186 184 0
-311 -186 -184 0
-313 312 0
-313 182 0
-313 181 -184 0
-313 -181 184 0
313 -312 181 184 -182 0
313 -312 -181 -184 -182 0
315 312 -181 0
315 -312 181 0
-315 312 181 0
-315 -312 -181 0
314 184 -182 0
314 -184 182 0
-314 184 182 0
-314 -184 -182 0
-316 315 0
-316 180 0
-316 179 -182 0
-316 -179 182 0
316 -315 179 182 -180 0
316 -315 -179 -182 -180 0
318 315 -179 0
318 -315 179 0
-318 315 179 0
-318 -315 -179 0
317 182 -180 0
317 -182 180 0
-317 182 180 0
-317 -182 -180 0
-319 318 0
-319 178 0
-319 177 -180 0
-319 -177 180 0
319 -318 177 180 -178 0
319 -318 -177 -180 -178 0
321 318 -177 0
321 -318 177 0
-321 318 177 0
-321 -318 -177 0
320 180 -178 0
320 -180 178 0
-320 180 178 0
-320 -180 -178 0
-322 321 0
-322 176 0
-322 175 -178 0
-322 -175 178 0
322 -321 175 178 -176 0
322 -321 -175 -178 -176 0
324 321 -175 0
324 -321 175 0
-324 321 175 0
-324 -321 -175 0
323 178 -176 0
323 -178 176 0
-323 178 176 0
-323 -178 -176 0
-325 324 0
-325 174 0
-325 173 -176 0
-325 -173 176 0
325 -324 173 176 -174 0
325 -324 -173 -176 -174 0
327 324 -173 0
327 -324 173 0
-327 324 173 0
-327 -324 -173 0
326 176 -174 0
326 -176 174 0
-326 176 174 0
-326 -176 -174 0
-328 327 0
-328 172 0
-328 171 -174 0
-328 -171 174 0
328 -327 171 174 -172 0
328 -327 -171 -174 -172 0
330 327 -171 0
330 -327 171 0
-330 327 171 0
-330 -327 -171 0
329 174 -172 0
329 -174 172 0
-329 174 172 0
-329 -174 -172 0
-331 330 0
-331 170 0
-331 169 -172 0
-331 -169 172 0
331 -330 169 172 -170 0
331 -330 -169 -172 -170 0
333 330 -169 0
333 -330 169 0
-333 330 169 0
-333 -330 -169 0
332 172 -170 0
332 -172 170 0
-332 172 170 0
-332 -172 -170 0
-334 333 0
-334 168 0
-334 167 -170 0
-334 -167 170 0
334 -333 167 170 -168 0
334 -333 -167 -170 -168 0
336 333 -167 0
336 -333 167 0
-336 333 167 0
-336 -333 -167 0
335 170 -168 0
335 -170 168 0
-335 170 168 0
-335 -170 -168 0
-337 336 0
-337 166 0
-337 165 -168 0
-337 -165 168 0
337 -336 165 168 -166 0
337 -336 -165 -168 -166 0
339 336 -165 0
339 -336 165 0
-339 336 165 0
-339 -336 -165 0
338 168 -166 0
338 -168 166 0
-338 168 166 0
-338 -168 -166 0
-340 339 0
-340 164 0
-340 163 -166 0
-340 -163 166 0
340 -339 163 166 -164 0
340 -339 -163 -166 -164 0
342 339 -163 0
342 -339 163 0
-342 339 163 0
-342 -339 -163 0
341 166 -164 0
341 -166 164 0
-341 166 164 0
-341 -166 -164 0
-343 342 0
-343 162 0
-343 161 -164 0
-343 -161 164 0
343 -342 161 164 -162 0
343 -342 -161 -164 -162 0
345 342 -161 0
345 -342 161 0
-345 342 161 0
-345 -342 -161 0
344 164 -162 0
344 -164 162 0
-344 164 162 0
-344 -164 -162 0
-346 345 0
-346 160 0
-346 159 -162 0
-346 -159 162 0
346 -345 159 162 -160 0
346 -345 -159 -162 -160 0
348 345 -159 0
348 -345 159 0
-348 345 159 0
-348 -345 -159 0
347 162 -160 0
347 -162 160 0
-347 162 160 0
-347 -162 -160 0
-349 348 0
-349 158 0
-349 157 -160 0
-349 -157 160 0
349 -348 157 160 -158 0
349 -348 -157 -160 -158 0
351 348 -157 0
351 -348 157 0
-351 348 157 0
-351 -348 -157 0
350 160 -158 0
350 -160 158 0
-350 160 158 0
-350 -160 -158 0
-352 351 0
-352 156 0
-352 155 -158 0
-352 -155 158 0
352 -351 155 158 -156 0
352 -351 -155 -158 -156 0
354 351 -155 0
354 -351 155 0
-354 351 155 0
-354 -351 -155 0
353 158 -156 0
353 -158 156 0
-353 158 156 0
-353 -158 -156 0
-355 354 0
-355 154 0
-355 153 -156 0
-355 -153 156 0
355 -354 153 156 -154 0
355 -354 -153 -156 -154 0
357 354 -153 0
357 -354 153 0
-357 354 153 0
-357 -354 -153 0
356 156 -154 0
356 -156 154 0
-356 156 154 0
-356 -156 -154 0
-358 357 0
-358 152 0
-358 151 -154 0
-358 -151 154 0
358 -357 151 154 -152 0
358 -357 -151 -154 -152 0
360 357 -151 0
360 -357 151 0
-360 357 151 0
-360 -357 -151 0
359 154 -152 0
359 -154 152 0
-359 154 152 0
-359 -154 -152 0
-361 360 0
-361 150 0
-361 149 -152 0
-361 -149 152 0
361 -360 149 152 -150 0
361 -360 -149 -152 -150 0
363 360 -149 0
363 -360 149 0
-363 360 149 0
-363 -360 -149 0
362 152 -150 0
362 -152 150 0
-362 152 150 0
-362 -152 -150 0
-364 363 0
-364 148 0
-364 147 -150 0
-364 -147 150 0
364 -363 147 150 -148 0
364 -363 -147 -150 -148 0
366 363 -147 0
366 -363 147 0
-366 363 147 0
-366 -363 -147 0
365 150 -148 0
365 -150 148 0
-365 150 148 0
-365 -150 -148 0
-367 366 0
-367 146 0
-367 145 -148 0
-367 -145 148 0
367 -366 145 148 -146 0
367 -366 -145 -148 -146 0
369 366 -145 0
369 -366 145 0
-369 366 145 0
-369 -366 -145 0
368 148 -146 0
368 -148 146 0
-368 148 146 0
-368 -148 -146 0
-370 369 0
-370 144 0
-370 143 -146 0
-370 -143 146 0
370 -369 143 146 -144 0
370 -369 -143 -146 -144 0
372 369 -143 0
372 -369 143 0
-372 369 143 0
-372 -369 -143 0
371 146 -144 0
371 -146 144 0
-371 146 144 0
-371 -146 -144 0
-373 372 0
-373 142 0
-373 141 -144 0
-373 -141 144 0
373 -372 141 144 -142 0
373 -372 -141 -144 -142 0
375 372 -141 0
375 -372 141 0
-375 372 141 0
-375 -372 -141 0
374 144 -142 0
374 -144 142 0
-374 144 142 0
-374 -144 -142 0
-376 375 0
-376 140 0
-376 139 -142 0
-376 -139 142 0
376 -375 139 142 -140 0
376 -375 -139 -142 -140 0
378 375 -139 0
378 -375 139 0
-378 375 139 0
-378 -375 -139 0
377 142 -140 0
377 -142 140 0
-377 142 140 0
-377 -142 -140 0
-379 378 0
-379 138 0
-379 137 -140 0
-379 -137 140 0
379 -378 137 140 -138 0
379 -378 -137 -140 -138 0
381 378 -137 0
381 -378 137 0
-381 378 137 0
-381 -378 -137 0
380 140 -138 0
380 -140 138 0
-380 140 138 0
-380 -140 -138 0
-382 381 0
-382 136 0
-382 135 -138 0
-382 -135 138 0
382 -381 135 138 -136 0
382 -381 -135 -138 -136 0
384 381 -135 0
384 -381 135 0
-384 381 135 0
-384 -381 -135 0
383 138 -136 0
383 -138 136 0
-383 138 136 0
-383 -138 -136 0
-385 384 0
-385 134 0
-385 133 -136 0
-385 -133 136 0
385 -384 133 136 -134 0
385 -384 -133 -136 -134 0
387 384 -133 0
387 -384 133 0
-387 384 133 0
-387 -384 -133 0
386 136 -134 0
386 -136 134 0
-386 136 134 0
-386 -136 -134 0
-388 387 0
-388 132 0
-388 131 -134 0
-388 -131 134 0
388 -387 131 134 -132 0
388 -387 -131 -134 -132 0
390 387 -131 0
390 -387 131 0
-390 387 131 0
-390 -387 -131 0
389 134 -132 0
389 -134 132 0
-389 134 132 0
-389 -134 -132 0
-391 390 0
-391 130 0
-391 129 -132 0
-391 -129 132 0
391 -390 129 132 -130 0
391 -390 -129 -132 -130 0
393 390 -129 0
393 -390 129 0
-393 390 129 0
-393 -390 -129 0
392 132 -130 0
392 -132 130 0
-392 132 130 0
-392 -132 -130 0
-394 393 0
-394 128 0
-394 127 -130 0
-394 -127 130 0
394 -393 127 130 -128 0
394 -393 -127 -130 -128 0
396 393 -127 0
396 -393 127 0
-396 393 127 0
-396 -393 -127 0
395 130 -128 0
395 -130 128 0
-395 130 128 0
-395 -130 -128 0
-397 396 0
-397 126 0
-397 125 -128 0
-397 -125 128 0
397 -396 125 128 -126 0
397 -396 -125 -128 -126 0
399 396 -125 0
399 -396 125 0
-399 396 125 0
-399 -396 -125 0
398 128 -126 0
398 -128 126 0
-398 128 126 0
-398 -128 -126 0
-400 399 0
-400 124 0
-400 123 -126 0
-400 -123 126 0
400 -399 123 126 -124 0
400 -399 -123 -126 -124 0
402 399 -123 0
402 -399 123 0
-402 399 123 0
-402 -399 -123 0
401 126 -124 0
401 -126 124 0
-401 126 124 0
-401 -126 -124 0
-403 402 0
-403 122 0
-403 121 -124 0
-403 -121 124 0
403 -402 121 124 -122 0
403 -402 -121 -124 -122 0
405 402 -121 0
405 -402 121 0
-405 402 121 0
-405 -402 -121 0
404 124 -122 0
404 -124 122 0
-404 124 122 0
-404 -124 -122 0
-406 405 0
-406 120 0
-406 119 -122 0
-406 -119 122 0
406 -405 119 122 -120 0
406 -405 -119 -122 -120 0
408 405 -119 0
408 -405 119 0
-408 405 119 0
-408 -405 -119 0
407 122 -120 0
407 -122 120 0
-407 122 120 0
-407 -122 -120 0
-409 408 0
-409 118 0
-409 117 -120 0
-409 -117 120 0
409 -408 117 120 -118 0
409 -408 -117 -120 -118 0
411 408 -117 0
411 -408 117 0
-411 408 117 0
-411 -408 -117 0
410 120 -118 0
410 -120 118 0
-410 120 118 0
-410 -120 -118 0
-412 411 0
-412 116 0
-412 115 -118 0
-412 -115 118 0
412 -411 115 118 -116 0
412 -411 -115 -118 -116 0
414 411 -115 0
414 -411 115 0
-414 411 115 0
-414 -411 -115 0
413 118 -116 0
413 -118 116 0
-413 118 116 0
-413 -118 -116 0
-415 414 0
-415 114 0
-415 113 -116 0
-415 -113 116 0
415 -414 113 116 -114 0
415 -414 -113 -116 -114 0
417 414 -113 0
417 -414 113 0
-417 414 113 0
-417 -414 -113 0
416 116 -114 0
416 -116 114 0
-416 116 114 0
-416 -116 -114 0
-418 417 0
-418 112 0
-418 111 -114 0
-418 -111 114 0
418 -417 111 114 -112 0
418 -417 -111 -114 -112 0
420 417 -111 0
420 -417 111 0
-420 417 111 0
-420 -417 -111 0
419 114 -112 0
419 -114 112 0
-419 114 112 0
-419 -114 -112 0
-421 420 0
-421 110 0
-421 109 -112 0
-421 -109 112 0
421 -420 109 112 -110 0
421 -420 -109 -112 -110 0
423 420 -109 0
423 -420 109 0
-423 420 109 0
-423 -420 -109 0
422 112 -110 0
422 -112 110 0
-422 112 110 0
-422 -112 -110 0
-424 423 0
-424 108 0
-424 107 -110 0
-424 -107 110 0
424 -423 107 110 -108 0
424 -423 -107 -110 -108 0
426 423 -107 0
426 -423 107 0
-426 423 107 0
-426 -423 -107 0
425 110 -108 0
425 -110 108 0
-425 110 108 0
-425 -110 -108 0
-427 426 0
-427 106 0
-427 105 -108 0
-427 -105 108 0
427 -426 105 108 -106 0
427 -426 -105 -108 -106 0
429 426 -105 0
429 -426 105 0
-429 426 105 0
-429 -426 -105 0
428 108 -106 0
428 -108 106 0
-428 108 106 0
-428 -108 -106 0
-430 429 0
-430 104 0
-430 103 -106 0
-430 -103 106 0
430 -429 103 106 -104 0
430 -429 -103 -106 -104 0
432 429 -103 0
432 -429 103 0
-432 429 103 0
-432 -429 -103 0
431 106 -104 0
431 -106 104 0
-431 106 104 0
-431 -106 -104 0
-433 432 0
-433 102 0
-433 101 -104 0
-433 -101 104 0
433 -432 101 104 -102 0
433 -432 -101 -104 -102 0
435 432 -101 0
435 -432 101 0
-435 432 101 0
-435 -432 -101 0
434 104 -102 0
434 -104 102 0
-434 104 102 0
-434 -104 -102 0
-436 435 0
-436 100 0
-436 99 -102 0
-436 -99 102 0
436 -435 99 102 -100 0
436 -435 -99 -102 -100 0
438 435 -99 0
438 -435 99 0
-438 435 99 0
-438 -435 -99 0
437 102 -100 0
437 -102 100 0
-437 102 100 0
-437 -102 -100 0
-439 438 0
-439 98 0
-439 97 -100 0
-439 -97 100 0
439 -438 97 100 -98 0
439 -438 -97 -100 -98 0
441 438 -97 0
441 -438 97 0
-441 438 97 0
-441 -438 -97 0
440 100 -98 0
440 -100 98 0
-440 100 98 0
-440 -100 -98 0
-442 441 0
-442 96 0
-442 95 -98 0
-442 -95 98 0
442 -441 95 98 -96 0
442 -441 -95 -98 -96 0
444 441 -95 0
444 -441 95 0
-444 441 95 0
-444 -441 -95 0
443 98 -96 0
443 -98 96 0
-443 98 96 0
-443 -98 -96 0
-445 444 0
-445 94 0
-445 93 -96 0
-445 -93 96 0
445 -444 93 96 -94 0
445 -444 -93 -96 -94 0
447 444 -93 0
447 -444 93 0
-447 444 93 0
-447 -444 -93 0
446 96 -94 0
446 -96 94 0
-446 96 94 0
-446 -96 -94 0
-448 447 0
-448 92 0
-448 91 -94 0
-448 -91 94 0
448 -447 91 94 -92 0
448 -447 -91 -94 -92 0
450 447 -91 0
450 -447 91 0
-450 447 91 0
-450 -447 -91 0
449 94 -92 0
449 -94 92 0
-449 94 92 0
-449 -94 -92 0
-451 450 0
-451 90 0
-451 89 -92 0
-451 -89 92 0
451 -450 89 92 -90 0
451 -450 -89 -92 -90 0
453 450 -89 0
453 -450 89 0
-453 450 89 0
-453 -450 -89 0
452 92 -90 0
452 -92 90 0
-452 92 90 0
-452 -92 -90 0
-454 453 0
-454 88 0
-454 87 -90 0
-454 -87 90 0
454 -453 87 90 -88 0
454 -453 -87 -90 -88 0
456 453 -87 0
456 -453 87 0
-456 453 87 0
-456 -453 -87 0
455 90 -88 0
455 -90 88 0
-455 90 88 0
-455 -90 -88 0
-457 456 0
-457 86 0
-457 85 -88 0
-457 -85 88 0
457 -456 85 88 -86 0
457 -456 -85 -88 -86 0
459 456 -85 0
459 -456 85 0
-459 456 85 0
-459 -456 -85 0
458 88 -86 0
458 -88 86 0
-458 88 86 0
-458 -88 -86 0
-460 459 0
-460 84 0
-460 83 -86 0
-460 -83 86 0
460 -459 83 86 -84 0
460 -459 -83 -86 -84 0
462 459 -83 0
462 -459 83 0
-462 459 83 0
-462 -459 -83 0
461 86 -84 0
461 -86 84 0
-461 86 84 0
-461 -86 -84 0
-463 462 0
-463 82 0
-463 81 -84 0
-463 -81 84 0
463 -462 81 84 -82 0
463 -462 -81 -84 -82 0
465 462 -81 0
465 -462 81 0
-465 462 81 0
-465 -462 -81 0
464 84 -82 0
464 -84 82 0
-464 84 82 0
-464 -84 -82 0
-466 465 0
-466 80 0
-466 79 -82 0
-466 -79 82 0
466 -465 79 82 -80 0
466 -465 -79 -82 -80 0
468 465 -79 0
468 -465 79 0
-468 465 79 0
-468 -465 -79 0
467 82 -80 0
467 -82 80 0
-467 82 80 0
-467 -82 -80 0
-469 468 0
-469 78 0
-469 77 -80 0
-469 -77 80 0
469 -468 77 80 -78 0
469 -468 -77 -80 -78 0
471 468 -77 0
471 -468 77 0
-471 468 77 0
-471 -468 -77 0
470 80 -78 0
470 -80 78 0
-470 80 78 0
-470 -80 -78 0
-472 471 0
-472 76 0
-472 75 -78 0
-472 -75 78 0
472 -471 75 78 -76 0
472 -471 -75 -78 -76 0
474 471 -75 0
474 -471 75 0
-474 471 75 0
-474 -471 -75 0
473 78 -76 0
473 -78 76 0
-473 78 76 0
-473 -78 -76 0
-475 474 0
-475 74 0
-475 73 -76 0
-475 -73 76 0
475 -474 73 76 -74 0
475 -474 -73 -76 -74 0
477 474 -73 0
477 -474 73 0
-477 474 73 0
-477 -474 -73 0
476 76 -74 0
476 -76 74 0
-476 76 74 0
-476 -76 -74 0
-478 477 0
-478 72 0
-478 71 -74 0
-478 -71 74 0
478 -477 71 74 -72 0
478 -477 -71 -74 -72 0
480 477 -71 0
480 -477 71 0
-480 477 71 0
-480 -477 -71 0
479 74 -72 0
479 -74 72 0
-479 74 72 0
-479 -74 -72 0
-481 480 0
-481 70 0
-481 69 -72 0
-481 -69 72 0
481 -480 69 72 -70 0
481 -480 -69 -72 -70 0
483 480 -69 0
483 -480 69 0
-483 480 69 0
-483 -480 -69 0
482 72 -70 0
482 -72 70 0
-482 72 70 0
-482 -72 -70 0
-484 483 0
-484 68 0
-484 67 -70 0
-484 -67 70 0
484 -483 67 70 -68 0
484 -483 -67 -70 -68 0
486 483 -67 0
486 -483 67 0
-486 483 67 0
-486 -483 -67 0
485 70 -68 0
485 -70 68 0
-485 70 68 0
-485 -70 -68 0
-487 486 0
-487 66 0
-487 65 -68 0
-487 -65 68 0
487 -486 65 68 -66 0
487 -486 -65 -68 -66 0
489 486 -65 0
489 -486 65 0
-489 486 65 0
-489 -486 -65 0
488 68 -66 0
488 -68 66 0
-488 68 66 0
-488 -68 -66 0
-490 489 0
-490 64 0
-490 63 -66 0
-490 -63 66 0
490 -489 63 66 -64 0
490 -489 -63 -66 -64 0
492 489 -63 0
492 -489 63 0
-492 489 63 0
-492 -489 -63 0
491 66 -64 0
491 -66 64 0
-491 66 64 0
-491 -66 -64 0
-493 492 0
-493 62 0
-493 61 -64 0
-493 -61 64 0
493 -492 61 64 -62 0
493 -492 -61 -64 -62 0
495 492 -61 0
495 -492 61 0
-495 492 61 0
-495 -492 -61 0
494 64 -62 0
494 -64 62 0
-494 64 62 0
-494 -64 -62 0
-496 495 0
-496 60 0
-496 59 -62 0
-496 -59 62 0
496 -495 59 62 -60 0
496 -495 -59 -62 -60 0
498 495 -59 0
498 -495 59 0
-498 495 59 0
-498 -495 -59 0
497 62 -60 0
497 -62 60 0
-497 62 60 0
-497 -62 -60 0
-499 498 0
-499 58 0
-499 57 -60 0
-499 -57 60 0
499 -498 57 60 -58 0
499 -498 -57 -60 -58 0
501 498 -57 0
501 -498 57 0
-501 498 57 0
-501 -498 -57 0
500 60 -58 0
500 -60 58 0
-500 60 58 0
-500 -60 -58 0
-502 501 0
-502 56 0
-502 55 -58 0
-502 -55 58 0
502 -501 55 58 -56 0
502 -501 -55 -58 -56 0
504 501 -55 0
504 -501 55 0
-504 501 55 0
-504 -501 -55 0
503 58 -56 0
503 -58 56 0
-503 58 56 0
-503 -58 -56 0
-505 504 0
-505 54 0
-505 53 -56 0
-505 -53 56 0
505 -504 53 56 -54 0
505 -504 -53 -56 -54 0
507 504 -53 0
507 -504 53 0
-507 504 53 0
-507 -504 -53 0
506 56 -54 0
506 -56 54 0
-506 56 54 0
-506 -56 -54 0
-508 507 0
-508 52 0
-508 51 -54 0
-508 -51 54 0
508 -507 51 54 -52 0
508 -507 -51 -54 -52 0
510 507 -51 0
510 -507 51 0
-510 507 51 0
-510 -507 -51 0
509 54 -52 0
509 -54 52 0
-509 54 52 0
-509 -54 -52 0
-511 510 0
-511 50 0
-511 49 -52 0
-511 -49 52 0
511 -510 49 52 -50 0
511 -510 -49 -52 -50 0
513 510 -49 0
513 -510 49 0
-513 510 49 0
-513 -510 -49 0
512 52 -50 0
512 -52 50 0
-512 52 50 0
-512 -52 -50 0
-514 513 0
-514 48 0
-514 47 -50 0
-514 -47 50 0
514 -513 47 50 -48 0
514 -513 -47 -50 -48 0
516 513 -47 0
516 -513 47 0
-516 513 47 0
-516 -513 -47 0
515 50 -48 0
515 -50 48 0
-515 50 48 0
-515 -50 -48 0
-517 516 0
-517 46 0
-517 45 -48 0
-517 -45 48 0
517 -516 45 48 -46 0
517 -516 -45 -48 -46 0
519 516 -45 0
519 -516 45 0
-519 516 45 0
-519 -516 -45 0
518 48 -46 0
518 -48 46 0
-518 48 46 0
-518 -48 -46 0
-520 519 0
-520 44 0
-520 43 -46 0
-520 -43 46 0
520 -519 43 46 -44 0
520 -519 -43 -46 -44 0
522 519 -43 0
522 -519 43 0
-522 519 43 0
-522 -519 -43 0
521 46 -44 0
521 -46 44 0
-521 46 44 0
-521 -46 -44 0
-523 522 0
-523 42 0
-523 41 -44 0
-523 -41 44 0
523 -522 41 44 -42 0
523 -522 -41 -44 -42 0
525 522 -41 0
525 -522 41 0
-525 522 41 0
-525 -522 -41 0
524 44 -42 0
524 -44 42 0
-524 44 42 0
-524 -44 -42 0
-526 525 0
-526 40 0
-526 39 -42 0
-526 -39 42 0
526 -525 39 42 -40 0
526 -525 -39 -42 -40 0
528 525 -39 0
528 -525 39 0
-528 525 39 0
-528 -525 -39 0
527 42 -40 0
527 -42 40 0
-527 42 40 0
-527 -42 -40 0
-529 528 0
-529 38 0
-529 37 -40 0
-529 -37 40 0
529 -528 37 40 -38 0
529 -528 -37 -40 -38 0
531 528 -37 0
531 -528 37 0
-531 528 37 0
-531 -528 -37 0
530 40 -38 0
530 -40 38 0
-530 40 38 0
-530 -40 -38 0
-532 531 0
-532 36 0
-532 35 -38 0
-532 -35 38 0
532 -531 35 38 -36 0
532 -531 -35 -38 -36 0
534 531 -35 0
534 -531 35 0
-534 531 35 0
-534 -531 -35 0
533 38 -36 0
533 -38 36 0
-533 38 36 0
-533 -38 -36 0
-535 534 0
-535 34 0
-535 33 -36 0
-535 -33 36 0
535 -534 33 36 -34 0
535 -534 -33 -36 -34 0
537 534 -33 0
537 -534 33 0
-537 534 33 0
-537 -534 -33 0
536 36 -34 0
536 -36 34 0
-536 36 34 0
-536 -36 -34 0
-538 537 0
-538 32 0
-538 31 -34 0
-538 -31 34 0
538 -537 31 34 -32 0
538 -537 -31 -34 -32 0
540 537 -31 0
540 -537 31 0
-540 537 31 0
-540 -537 -31 0
539 34 -32 0
539 -34 32 0
-539 34 32 0
-539 -34 -32 0
-541 540 0
-541 30 0
-541 29 -32 0
-541 -29 32 0
541 -540 29 32 -30 0
541 -540 -29 -32 -30 0
543 540 -29 0
543 -540 29 0
-543 540 29 0
-543 -540 -29 0
542 32 -30 0
542 -32 30 0
-542 32 30 0
-542 -32 -30 0
-544 543 0
-544 28 0
-544 27 -30 0
-544 -27 30 0
544 -543 27 30 -28 0
544 -543 -27 -30 -28 0
546 543 -27 0
546 -543 27 0
-546 543 27 0
-546 -543 -27 0
545 30 -28 0
545 -30 28 0
-545 30 28 0
-545 -30 -28 0
-547 546 0
-547 26 0
-547 25 -28 0
-547 -25 28 0
547 -546 25 28 -26 0
547 -546 -25 -28 -26 0
549 546 -25 0
549 -546 25 0
-549 546 25 0
-549 -546 -25 0
548 28 -26 0
548 -28 26 0
-548 28 26 0
-548 -28 -26 0
-550 549 0
-550 24 0
-550 23 -26 0
-550 -23 26 0
550 -549 23 26 -24 0
550 -549 -23 -26 -24 0
552 549 -23 0
552 -549 23 0
-552 549 23 0
-552 -549 -23 0
551 26 -24 0
551 -26 24 0
-551 26 24 0
-551 -26 -24 0
-553 552 0
-553 22 0
-553 21 -24 0
-553 -21 24 0
553 -552 21 24 -22 0
553 -552 -21 -24 -22 0
555 552 -21 0
555 -552 21 0
-555 552 21 0
-555 -552 -21 0
554 24 -22 0
554 -24 22 0
-554 24 22 0
-554 -24 -22 0
-556 555 0
-556 20 0
-556 19 -22 0
-556 -19 22 0
556 -555 19 22 -20 0
556 -555 -19 -22 -20 0
558 555 -19 0
558 -555 19 0
-558 555 19 0
-558 -555 -19 0
557 22 -20 0
557 -22 20 0
-557 22 20 0
-557 -22 -20 0
-559 558 0
-559 18 0
-559 17 -20 0
-559 -17 20 0
559 -558 17 20 -18 0
559 -558 -17 -20 -18 0
561 558 -17 0
561 -558 17 0
-561 558 17 0
-561 -558 -17 0
560 20 -18 0
560 -20 18 0
-560 20 18 0
-560 -20 -18 0
-562 561 0
-562 16 0
-562 15 -18 0
-562 -15 18 0
562 -561 15 18 -16 0
562 -561 -15 -18 -16 0
564 561 -15 0
564 -561 15 0
-564 561 15 0
-564 -561 -15 0
563 18 -16 0
563 -18 16 0
-563 18 16 0
-563 -18 -16 0
-565 564 0
-565 14 0
-565 13 -16 0
-565 -13 16 0
565 -564 13 16 -14 0
565 -564 -13 -16 -14 0
567 564 -13 0
567 -564 13 0
-567 564 13 0
-567 -564 -13 0
566 16 -14 0
566 -16 14 0
-566 16 14 0
-566 -16 -14 0
-568 567 0
-568 12 0
-568 11 -14 0
-568 -11 14 0
568 -567 11 14 -12 0
568 -567 -11 -14 -12 0
570 567 -11 0
570 -567 11 0
-570 567 11 0
-570 -567 -11 0
569 14 -12 0
569 -14 12 0
-569 14 12 0
-569 -14 -12 0
-571 570 0
-571 10 0
-571 9 -12 0
-571 -9 12 0
571 -570 9 12 -10 0
571 -570 -9 -12 -10 0
573 570 -9 0
573 -570 9 0
-573 570 9 0
-573 -570 -9 0
572 12 -10 0
572 -12 10 0
-572 12 10 0
-572 -12 -10 0
-574 573 0
-574 8 0
-574 7 -10 0
-574 -7 10 0
574 -573 7 10 -8 0
574 -573 -7 -10 -8 0
576 573 -7 0
576 -573 7 0
-576 573 7 0
-576 -573 -7 0
575 10 -8 0
575 -10 8 0
-575 10 8 0
-575 -10 -8 0
-577 576 0
-577 6 0
-577 5 -8 0
-577 -5 8 0
577 -576 5 8 -6 0
577 -576 -5 -8 -6 0
579 576 -5 0
579 -576 5 0
-579 576 5 0
-579 -576 -5 0
578 8 -6 0
578 -8 6 0
-578 8 6 0
-578 -8 -6 0
-580 579 0
-580 4 0
-580 3 -6 0
-580 -3 6 0
580 -579 3 6 -4 0
580 -579 -3 -6 -4 0
582 579 -3 0
582 -579 3 0
-582 579 3 0
-582 -579 -3 0
581 6 -4 0
581 -6 4 0
-581 6 4 0
-581 -6 -4 0
-583 582 0
-583 2 0
-583 1 -4 0
-583 -1 4 0
583 -582 1 4 -2 0
583 -582 -1 -4 -2 0
585 582 -1 0
585 -582 1 0
-585 582 1 0
-585 -582 -1 0
584 4 -2 0
584 -4 2 0
-584 4 2 0
-584 -4 -2 0
-585 0
-582 0
-584 0
-579 0
-581 0
-576 0
-578 0
-573 0
-575 0
-570 0
-572 0
-567 0
-569 0
-564 0
-566 0
-561 0
-563 0
-558 0
-560 0
-555 0
-557 0
-552 0
-554 0
-549 0
-551 0
-546 0
-548 0
-543 0
-545 0
-540 0
-542 0
-537 0
-539 0
-534 0
-536 0
-531 0
-533 0
-528 0
-530 0
-525 0
-527 0
-522 0
-524 0
-519 0
-521 0
-516 0
-518 0
-513 0
-515 0
-510 0
-512 0
-507 0
-509 0
-504 0
-506 0
-501 0
-503 0
-498 0
-500 0
-495 0
-497 0
-492 0
-494 0
-489 0
-491 0
-486 0
-488 0
-483 0
-485 0
-480 0
-482 0
-477 0
-479 0
-474 0
-476 0
-471 0
-473 0
-468 0
-470 0
-465 0
-467 0
-462 0
-464 0
-459 0
-461 0
-456 0
-458 0
-453 0
-455 0
-450 0
-452 0
-447 0
-449 0
-444 0
-446 0
-441 0
-443 0
-438 0
-440 0
-435 0
-437 0
-432 0
-434 0
-429 0
-431 0
-426 0
-428 0
-423 0
-425 0
-420 0
-422 0
-417 0
-419 0
-414 0
-416 0
-411 0
-413 0
-408 0
-410 0
-405 0
-407 0
-402 0
-404 0
-399 0
-401 0
-396 0
-398 0
-393 0
-395 0
-390 0
-392 0
-387 0
-389 0
-384 0
-386 0
-381 0
-383 0
-378 0
-380 0
-375 0
-377 0
-372 0
-374 0
-369 0
-371 0
-366 0
-368 0
-363 0
-365 0
-360 0
-362 0
-357 0
-359 0
-354 0
-356 0
-351 0
-353 0
-348 0
-350 0
-345 0
-347 0
-342 0
-344 0
-339 0
-341 0
-336 0
-338 0
-333 0
-335 0
-330 0
-332 0
-327 0
-329 0
-324 0
-326 0
-321 0
-323 0
-318 0
-320 0
-315 0
-317 0
-312 0
-314 0
-309 0
-311 0
-306 0
-308 0
-303 0
-305 0
-300 0
-302 0
-297 0
-299 0
-294 0
-296 0
-291 0
-293 0
-288 0
-290 0
-285 0
-287 0
-282 0
-284 0
-279 0
-281 0
-276 0
-278 0
-273 0
-275 0
-270 0
-272 0
-267 0
-269 0
-264 0
-266 0
-261 0
-263 0
-258 0
-260 0
-255 0
-257 0
-252 0
-254 0
-249 0
-251 0
-246 0
-248 0
-243 0
-245 0
-236 0
-242 0
